6

0   11   16   19   17   23
11   0   6   9   10   14
16   6   0   7   21   23
19   9   7   0   10   11
17   10   21   10   0   1
23   14   23   11   1   0

0   44   26   52   66   26
44   0   34   72   36   54
26   34   0   38   40   20
52   72   38   0   36   26
66   36   40   36   0   40
26   54   20   26   40   0